NAME: tsp10_1
COMMENT: 10-tsp problem (Padberg/Rinaldi)
TYPE: TSP
DIMENSION: 10
EDGE_WEIGHT_TYPE : EUC_2D
NODE_COORD_SECTION
1 37 35
2 9 17
3 23 33
4 4 30
5 25 35
6 25 19
7 29 33
8 34 29
9 36 18
10 3 32
